param n := 120;
param c := 10000
param : V : p w :=
   0	  61	 377
   1	  63	 284
   2	  66	 339
   3	  19	 366
   4	  30	 260
   5	  50	 374
   6	 100	 469
   7	  65	 253
   8	  48	 278
   9	  32	 397
  10	  66	 292
  11	 100	 311
  12	  97	 429
  13	   4	 260
  14	  43	 311
  15	   9	 448
  16	  41	 253
  17	  24	 299
  18	  93	 428
  19	  87	 269
  20	  10	 303
  21	  73	 491
  22	  20	 251
  23	  42	 258
  24	  70	 357
  25	  21	 265
  26	  97	 378
  27	  95	 350
  28	  49	 320
  29	  66	 330
  30	  40	 453
  31	  65	 250
  32	  59	 297
  33	  38	 380
  34	  69	 260
  35	  14	 360
  36	  17	 471
  37	   2	 258
  38	   3	 271
  39	  93	 391
  40	  29	 290
  41	   5	 319
  42	  84	 465
  43	  31	 254
  44	  34	 281
  45	  15	 420
  46	  47	 254
  47	  27	 326
  48	  59	 404
  49	  44	 297
  50	  96	 299
  51	  26	 364
  52	  45	 300
  53	  67	 336
  54	  68	 370
  55	  11	 303
  56	  37	 327
  57	   7	 358
  58	  61	 269
  59	   7	 373
  60	  74	 371
  61	  16	 254
  62	  23	 375
  63	  49	 451
  64	  14	 257
  65	  87	 292
  66	  41	 380
  67	  12	 295
  68	  78	 325
  69	  46	 357
  70	  30	 273
  71	   6	 370
  72	  83	 359
  73	  24	 318
  74	  64	 323
  75	  43	 457
  76	  41	 262
  77	   4	 281
  78	 100	 441
  79	   2	 255
  80	   9	 304
  81	  79	 468
  82	  23	 257
  83	  78	 275
  84	  39	 491
  85	  15	 252
  86	  30	 257
  87	  78	 359
  88	  15	 266
  89	  79	 375
  90	  56	 459
  91	  42	 252
  92	   2	 289
  93	  92	 427
  94	  39	 252
  95	  89	 321
  96	  52	 461
  97	  66	 263
  98	  69	 276
  99	  55	 425
 100	  98	 286
 101	  60	 289
 102	  65	 360
 103	  32	 277
 104	  91	 363
 105	  89	 402
 106	  37	 297
 107	  36	 301
 108	  89	 455
 109	  53	 260
 110	  25	 285
 111	  29	 493
 112	  48	 250
 113	   1	 257
 114	  11	 378
 115	  52	 299
 116	  82	 323
 117	  43	 390
 118	  79	 285
 119	  50	 325
;

set E :=
   0	  10
   0	  32
   0	  62
   0	  67
   0	  72
   0	  74
   0	  98
   0	 107
   0	 111
   0	 112
   1	  17
   1	  23
   1	  50
   1	  57
   1	  58
   1	  67
   1	  73
   1	  77
   1	  97
   1	 109
   2	   3
   2	   4
   2	  21
   2	  32
   2	  39
   2	  42
   2	  43
   2	  49
   2	  51
   2	  57
   2	  61
   2	  80
   2	  82
   2	  99
   2	 100
   2	 105
   3	   7
   3	  23
   3	  33
   3	  40
   3	  43
   3	  52
   3	  64
   3	  73
   3	  78
   3	  95
   3	 105
   3	 114
   4	  23
   4	  24
   4	  31
   4	  32
   4	  37
   4	  47
   4	  55
   4	  56
   4	  61
   4	  70
   4	 101
   4	 107
   5	  11
   5	  15
   5	  18
   5	  19
   5	  22
   5	  23
   5	  30
   5	  31
   5	  33
   5	  42
   5	  80
   5	  81
   5	  85
   5	  89
   5	 109
   5	 113
   6	  13
   6	  26
   6	  30
   6	  47
   6	  53
   6	  58
   6	  76
   6	  79
   6	 103
   7	  10
   7	  17
   7	  18
   7	  20
   7	  31
   7	  56
   7	  63
   7	  68
   7	  71
   7	  75
   7	  84
   7	  86
   7	 101
   7	 102
   7	 105
   7	 114
   8	  12
   8	  18
   8	  30
   8	  39
   8	  57
   8	  58
   8	  64
   8	  67
   8	  72
   8	  75
   8	  86
   8	  96
   8	 107
   9	  45
   9	  54
   9	  56
   9	  80
   9	  82
   9	  84
   9	  87
   9	  88
   9	  92
   9	 106
   9	 110
   9	 113
  10	  42
  10	  58
  10	  84
  11	  17
  11	  29
  11	  45
  11	  94
  11	  96
  11	 106
  11	 116
  11	 119
  12	  16
  12	  32
  12	  37
  12	  53
  12	  54
  12	  77
  12	  83
  12	  90
  12	  99
  12	 101
  12	 118
  13	  29
  13	  39
  13	  42
  13	  50
  13	  52
  13	  58
  13	  68
  13	  97
  14	  20
  14	  27
  14	  34
  14	  41
  14	  53
  14	  77
  14	  86
  14	 100
  14	 101
  14	 102
  14	 115
  15	  24
  15	  28
  15	  35
  15	  58
  15	  61
  15	  65
  15	  66
  15	  86
  15	  90
  15	  93
  15	  94
  15	 107
  15	 113
  16	  43
  16	  48
  16	  53
  16	  58
  16	  59
  16	  77
  16	  89
  16	  91
  16	  92
  16	 111
  16	 119
  17	  26
  17	  27
  17	  48
  17	  70
  17	  82
  17	  89
  17	  92
  17	  99
  17	 102
  17	 116
  18	  34
  18	  35
  18	  41
  18	  46
  18	  49
  18	  55
  18	  59
  18	  66
  18	  70
  18	 102
  19	  30
  19	  35
  19	  54
  19	  81
  19	  87
  19	 101
  20	  33
  20	  40
  20	  48
  20	  63
  20	  64
  20	  73
  20	  82
  20	  87
  20	  89
  20	  91
  21	  37
  21	  38
  21	  41
  21	  49
  21	  51
  21	  53
  21	  57
  21	  81
  21	  83
  21	  86
  21	  90
  21	 102
  22	  28
  22	  58
  22	  69
  22	  70
  22	  72
  22	  75
  22	  77
  22	  93
  22	  94
  22	 118
  23	  36
  23	  48
  23	  60
  23	  62
  23	 108
  24	  29
  24	  30
  24	  35
  24	  38
  24	  42
  24	  50
  24	  51
  24	  61
  24	  69
  24	  76
  24	  79
  24	  80
  24	  81
  24	  89
  24	  99
  25	  28
  25	  76
  25	  89
  25	 100
  26	  53
  26	  76
  26	 101
  26	 110
  26	 116
  27	  34
  27	  49
  27	  55
  27	  76
  27	  77
  27	  78
  27	  80
  27	  84
  27	 107
  27	 112
  27	 113
  27	 118
  28	  37
  28	  44
  28	  49
  28	  53
  28	  76
  28	  89
  28	  92
  28	 101
  28	 109
  29	  40
  29	  42
  29	  53
  29	  61
  29	  90
  29	  96
  29	 100
  29	 111
  29	 118
  30	  35
  30	  45
  30	  81
  30	  83
  30	  96
  30	  99
  31	  32
  31	  43
  31	  52
  31	  54
  31	  59
  31	  60
  31	  70
  31	  71
  31	  81
  31	  82
  31	  84
  31	  94
  31	  97
  31	 106
  31	 113
  32	  35
  32	  38
  32	  41
  32	  54
  32	  56
  32	  59
  32	  64
  32	  67
  32	  79
  33	  35
  33	  39
  33	  60
  33	  64
  33	  79
  33	  98
  33	 107
  33	 116
  34	  35
  34	  53
  34	  57
  34	  58
  34	  66
  34	  99
  34	 102
  34	 116
  35	  49
  35	  65
  35	  71
  35	  76
  35	  93
  35	 102
  35	 116
  36	  37
  36	  41
  36	  58
  36	  78
  36	  79
  36	  83
  36	  90
  36	  94
  36	 113
  36	 116
  37	  51
  37	  65
  37	  70
  37	  79
  37	  92
  37	  99
  37	 101
  37	 111
  38	  48
  38	  60
  38	  70
  38	  75
  38	  88
  38	 113
  38	 117
  39	  45
  39	  55
  39	  68
  39	  77
  39	  80
  39	 104
  40	  41
  40	  61
  40	  62
  40	  78
  40	  85
  40	 101
  40	 108
  40	 113
  40	 114
  41	  54
  41	  55
  41	  64
  41	  73
  41	  94
  41	 107
  41	 112
  42	  78
  42	  79
  42	  84
  42	  85
  42	  89
  42	  99
  42	 100
  42	 107
  42	 110
  42	 116
  43	  58
  43	  60
  43	  69
  43	 100
  44	  58
  44	  60
  44	  71
  44	  92
  44	  99
  44	 114
  45	  59
  45	  67
  45	  82
  45	  96
  45	 101
  45	 106
  45	 117
  46	  51
  46	  62
  46	  69
  46	  73
  46	  74
  46	  76
  46	  89
  46	  93
  46	  99
  46	 111
  47	  55
  47	  65
  47	  67
  47	  77
  47	  98
  47	 113
  47	 114
  48	  56
  48	  69
  48	  71
  48	  74
  48	  82
  48	  95
  48	 101
  48	 111
  49	  62
  49	  78
  49	  90
  49	 106
  49	 108
  49	 119
  50	  70
  50	  75
  50	  93
  50	 106
  50	 112
  51	  57
  51	  62
  51	  63
  51	  92
  51	 115
  51	 118
  52	  69
  52	  89
  53	  56
  53	  57
  53	  61
  53	  62
  53	  68
  53	  70
  53	  75
  53	  92
  53	  97
  53	 106
  54	  55
  54	  63
  54	  65
  54	  70
  54	  85
  54	  88
  54	  92
  54	  96
  54	 100
  54	 103
  54	 109
  55	  58
  55	  59
  55	  73
  55	  89
  55	  93
  55	  97
  55	 111
  55	 115
  55	 117
  56	  58
  56	  59
  56	  60
  56	  71
  56	 115
  57	  66
  57	  70
  57	  77
  57	  81
  57	  85
  57	 101
  57	 112
  58	  62
  58	  69
  58	  72
  58	  73
  58	  83
  58	  88
  58	  91
  58	  95
  58	  98
  58	 116
  59	  77
  59	  87
  59	  91
  59	 102
  59	 103
  59	 107
  60	  62
  60	  82
  60	  85
  60	  94
  60	 119
  61	  68
  61	  77
  61	  86
  61	  97
  61	 119
  62	  66
  62	  67
  62	  76
  62	  96
  62	 100
  62	 101
  62	 110
  62	 119
  63	  74
  63	  75
  63	  82
  63	  97
  63	 117
  64	  67
  64	  73
  64	  74
  64	  75
  64	  77
  64	  83
  64	  85
  64	 100
  64	 113
  65	  91
  65	  97
  65	  98
  65	 113
  65	 119
  66	  78
  66	  91
  66	 103
  67	  75
  67	  84
  67	  97
  67	 105
  67	 107
  67	 112
  68	  72
  68	  76
  68	  88
  68	 108
  68	 109
  69	  70
  69	  92
  69	 108
  69	 117
  70	  79
  70	  83
  70	  91
  70	  93
  71	  81
  71	 110
  71	 114
  72	  76
  72	 112
  73	  78
  73	  82
  73	  84
  73	  94
  73	 111
  74	  92
  74	 114
  75	  84
  75	  86
  75	  91
  75	 101
  75	 110
  75	 112
  75	 118
  76	  95
  76	  98
  76	  99
  76	 110
  76	 112
  77	 106
  77	 113
  78	  82
  78	  93
  78	 100
  78	 111
  78	 117
  79	  92
  79	 111
  79	 113
  79	 114
  80	  86
  80	  94
  80	 116
  81	  97
  81	 115
  81	 119
  82	  84
  82	 108
  83	  89
  83	  92
  83	 112
  84	  86
  84	  93
  84	  97
  84	 101
  84	 105
  84	 115
  84	 119
  85	  89
  85	  93
  85	  95
  85	  97
  85	 111
  85	 115
  85	 117
  86	  91
  86	  94
  86	  99
  86	 103
  86	 117
  87	  90
  87	 101
  87	 105
  87	 111
  88	  94
  88	 103
  88	 108
  88	 113
  89	  90
  89	 104
  89	 105
  89	 108
  89	 111
  89	 116
  89	 118
  90	  99
  91	 100
  91	 101
  91	 109
  91	 112
  92	  93
  92	 103
  92	 105
  92	 110
  92	 111
  93	  96
  93	 107
  93	 115
  94	 113
  95	 104
  95	 107
  95	 118
  96	 102
  96	 116
  97	  98
  97	 103
  97	 112
  97	 116
  97	 119
  98	 107
  98	 115
  99	 113
 100	 118
 101	 111
 101	 115
 102	 111
 102	 116
 103	 117
 103	 119
 105	 106
 107	 117
 108	 114
 109	 113
 109	 114
 112	 113
 112	 114
 115	 116
 115	 119
 117	 118
;
